LAMMPS (3 Mar 2020)
OMP_NUM_THREADS environment is not set. Defaulting to 1 thread. (src/comm.cpp:94)
  using 1 OpenMP thread(s) per MPI task

echo both
units metal
dimension 3
boundary p p p

atom_style full
bond_style harmonic
angle_style harmonic
neighbor 2.0 bin
neigh_modify delay 0 every 1 check yes
####读取水
read_data h2o.file
  orthogonal box = (-1 0 -45) to (289 290 25)
  8 by 8 by 1 MPI processor grid
  reading atoms ...
  157797 atoms
  scanning bonds ...
  2 = max bonds/atom
  scanning angles ...
  1 = max angles/atom
  reading bonds ...
  105198 bonds
  reading angles ...
  52599 angles
  2 = max # of 1-2 neighbors
  1 = max # of 1-3 neighbors
  1 = max # of 1-4 neighbors
  2 = max # of special neighbors
  special bonds CPU = 0.00573076 secs
  read_data CPU = 0.416376 secs
#####创建碳化硅
variable a equal 3.073000
variable b equal $((v_a*sqrt(3)))
variable b equal 5.3225921316591593424
variable c equal 10.053000
lattice custom  1.0             a1      $a      0.0     0.0             a2      0.0     $b      0.0             a3      0.0     0.0     $c              basis   0.0    0.0    $((1.889964/v_c))         basis   $((1.536500/v_a))    $((2.661296/v_b))    $((1.889964/v_c))             basis   0.0    0.0    $((6.916464/v_c))         basis   $((1.536500/v_a))    $((2.661296/v_b))    $((6.916464/v_c))             basis   0.0    $((1.774197/v_b))    $((4.403214/v_c))           basis   $((1.536500/v_a))    $((0.887099/v_b))    $((9.429714/v_c))             basis   $((1.536500/v_a))    $((4.43549/v_b))     $((4.403214/v_c))             basis   0.0     $((3.5484/v_b))  $((9.429714/v_c))              basis    0.0    0.0    0.0              basis    $((1.536500/v_a))    $((2.661296/v_b))    0.0          basis    0.0    0.0    $((5.026500/v_c))                basis    $((1.536500/v_a))    $((2.661296/v_b))    $((5.026500/v_c))            basis    0.0    $((1.774197/v_b))    $((2.513250/v_c))          basis    $((1.536500/v_a))    $((0.887099/v_b))    $((7.539750/v_c))            basis    $((1.536500/v_a))    $((4.435493/v_b))    $((2.513250/v_c))            basis    0    $((3.548395/v_b))    $((7.539750/v_c))
lattice custom  1.0             a1      3.073      0.0     0.0             a2      0.0     $b      0.0             a3      0.0     0.0     $c              basis   0.0    0.0    $((1.889964/v_c))         basis   $((1.536500/v_a))    $((2.661296/v_b))    $((1.889964/v_c))             basis   0.0    0.0    $((6.916464/v_c))         basis   $((1.536500/v_a))    $((2.661296/v_b))    $((6.916464/v_c))             basis   0.0    $((1.774197/v_b))    $((4.403214/v_c))           basis   $((1.536500/v_a))    $((0.887099/v_b))    $((9.429714/v_c))             basis   $((1.536500/v_a))    $((4.43549/v_b))     $((4.403214/v_c))             basis   0.0     $((3.5484/v_b))  $((9.429714/v_c))              basis    0.0    0.0    0.0              basis    $((1.536500/v_a))    $((2.661296/v_b))    0.0          basis    0.0    0.0    $((5.026500/v_c))                basis    $((1.536500/v_a))    $((2.661296/v_b))    $((5.026500/v_c))            basis    0.0    $((1.774197/v_b))    $((2.513250/v_c))          basis    $((1.536500/v_a))    $((0.887099/v_b))    $((7.539750/v_c))            basis    $((1.536500/v_a))    $((4.435493/v_b))    $((2.513250/v_c))            basis    0    $((3.548395/v_b))    $((7.539750/v_c))
lattice custom  1.0             a1      3.073      0.0     0.0             a2      0.0     5.32259213165916      0.0             a3      0.0     0.0     $c              basis   0.0    0.0    $((1.889964/v_c))         basis   $((1.536500/v_a))    $((2.661296/v_b))    $((1.889964/v_c))             basis   0.0    0.0    $((6.916464/v_c))         basis   $((1.536500/v_a))    $((2.661296/v_b))    $((6.916464/v_c))             basis   0.0    $((1.774197/v_b))    $((4.403214/v_c))           basis   $((1.536500/v_a))    $((0.887099/v_b))    $((9.429714/v_c))             basis   $((1.536500/v_a))    $((4.43549/v_b))     $((4.403214/v_c))             basis   0.0     $((3.5484/v_b))  $((9.429714/v_c))              basis    0.0    0.0    0.0              basis    $((1.536500/v_a))    $((2.661296/v_b))    0.0          basis    0.0    0.0    $((5.026500/v_c))                basis    $((1.536500/v_a))    $((2.661296/v_b))    $((5.026500/v_c))            basis    0.0    $((1.774197/v_b))    $((2.513250/v_c))          basis    $((1.536500/v_a))    $((0.887099/v_b))    $((7.539750/v_c))            basis    $((1.536500/v_a))    $((4.435493/v_b))    $((2.513250/v_c))            basis    0    $((3.548395/v_b))    $((7.539750/v_c))
lattice custom  1.0             a1      3.073      0.0     0.0             a2      0.0     5.32259213165916      0.0             a3      0.0     0.0     10.053              basis   0.0    0.0    $((1.889964/v_c))         basis   $((1.536500/v_a))    $((2.661296/v_b))    $((1.889964/v_c))             basis   0.0    0.0    $((6.916464/v_c))         basis   $((1.536500/v_a))    $((2.661296/v_b))    $((6.916464/v_c))             basis   0.0    $((1.774197/v_b))    $((4.403214/v_c))           basis   $((1.536500/v_a))    $((0.887099/v_b))    $((9.429714/v_c))             basis   $((1.536500/v_a))    $((4.43549/v_b))     $((4.403214/v_c))             basis   0.0     $((3.5484/v_b))  $((9.429714/v_c))              basis    0.0    0.0    0.0              basis    $((1.536500/v_a))    $((2.661296/v_b))    0.0          basis    0.0    0.0    $((5.026500/v_c))                basis    $((1.536500/v_a))    $((2.661296/v_b))    $((5.026500/v_c))            basis    0.0    $((1.774197/v_b))    $((2.513250/v_c))          basis    $((1.536500/v_a))    $((0.887099/v_b))    $((7.539750/v_c))            basis    $((1.536500/v_a))    $((4.435493/v_b))    $((2.513250/v_c))            basis    0    $((3.548395/v_b))    $((7.539750/v_c))
lattice custom  1.0             a1      3.073      0.0     0.0             a2      0.0     5.32259213165916      0.0             a3      0.0     0.0     10.053              basis   0.0    0.0    0.18799999999999997269         basis   $((1.536500/v_a))    $((2.661296/v_b))    $((1.889964/v_c))             basis   0.0    0.0    $((6.916464/v_c))         basis   $((1.536500/v_a))    $((2.661296/v_b))    $((6.916464/v_c))             basis   0.0    $((1.774197/v_b))    $((4.403214/v_c))           basis   $((1.536500/v_a))    $((0.887099/v_b))    $((9.429714/v_c))             basis   $((1.536500/v_a))    $((4.43549/v_b))     $((4.403214/v_c))             basis   0.0     $((3.5484/v_b))  $((9.429714/v_c))              basis    0.0    0.0    0.0              basis    $((1.536500/v_a))    $((2.661296/v_b))    0.0          basis    0.0    0.0    $((5.026500/v_c))                basis    $((1.536500/v_a))    $((2.661296/v_b))    $((5.026500/v_c))            basis    0.0    $((1.774197/v_b))    $((2.513250/v_c))          basis    $((1.536500/v_a))    $((0.887099/v_b))    $((7.539750/v_c))            basis    $((1.536500/v_a))    $((4.435493/v_b))    $((2.513250/v_c))            basis    0    $((3.548395/v_b))    $((7.539750/v_c))
lattice custom  1.0             a1      3.073      0.0     0.0             a2      0.0     5.32259213165916      0.0             a3      0.0     0.0     10.053              basis   0.0    0.0    0.18799999999999997269         basis   0.5    $((2.661296/v_b))    $((1.889964/v_c))             basis   0.0    0.0    $((6.916464/v_c))         basis   $((1.536500/v_a))    $((2.661296/v_b))    $((6.916464/v_c))             basis   0.0    $((1.774197/v_b))    $((4.403214/v_c))           basis   $((1.536500/v_a))    $((0.887099/v_b))    $((9.429714/v_c))             basis   $((1.536500/v_a))    $((4.43549/v_b))     $((4.403214/v_c))             basis   0.0     $((3.5484/v_b))  $((9.429714/v_c))              basis    0.0    0.0    0.0              basis    $((1.536500/v_a))    $((2.661296/v_b))    0.0          basis    0.0    0.0    $((5.026500/v_c))                basis    $((1.536500/v_a))    $((2.661296/v_b))    $((5.026500/v_c))            basis    0.0    $((1.774197/v_b))    $((2.513250/v_c))          basis    $((1.536500/v_a))    $((0.887099/v_b))    $((7.539750/v_c))            basis    $((1.536500/v_a))    $((4.435493/v_b))    $((2.513250/v_c))            basis    0    $((3.548395/v_b))    $((7.539750/v_c))
lattice custom  1.0             a1      3.073      0.0     0.0             a2      0.0     5.32259213165916      0.0             a3      0.0     0.0     10.053              basis   0.0    0.0    0.18799999999999997269         basis   0.5    0.49999998763204500651    $((1.889964/v_c))             basis   0.0    0.0    $((6.916464/v_c))         basis   $((1.536500/v_a))    $((2.661296/v_b))    $((6.916464/v_c))             basis   0.0    $((1.774197/v_b))    $((4.403214/v_c))           basis   $((1.536500/v_a))    $((0.887099/v_b))    $((9.429714/v_c))             basis   $((1.536500/v_a))    $((4.43549/v_b))     $((4.403214/v_c))             basis   0.0     $((3.5484/v_b))  $((9.429714/v_c))              basis    0.0    0.0    0.0              basis    $((1.536500/v_a))    $((2.661296/v_b))    0.0          basis    0.0    0.0    $((5.026500/v_c))                basis    $((1.536500/v_a))    $((2.661296/v_b))    $((5.026500/v_c))            basis    0.0    $((1.774197/v_b))    $((2.513250/v_c))          basis    $((1.536500/v_a))    $((0.887099/v_b))    $((7.539750/v_c))            basis    $((1.536500/v_a))    $((4.435493/v_b))    $((2.513250/v_c))            basis    0    $((3.548395/v_b))    $((7.539750/v_c))
lattice custom  1.0             a1      3.073      0.0     0.0             a2      0.0     5.32259213165916      0.0             a3      0.0     0.0     10.053              basis   0.0    0.0    0.18799999999999997269         basis   0.5    0.49999998763204500651    0.18799999999999997269             basis   0.0    0.0    $((6.916464/v_c))         basis   $((1.536500/v_a))    $((2.661296/v_b))    $((6.916464/v_c))             basis   0.0    $((1.774197/v_b))    $((4.403214/v_c))           basis   $((1.536500/v_a))    $((0.887099/v_b))    $((9.429714/v_c))             basis   $((1.536500/v_a))    $((4.43549/v_b))     $((4.403214/v_c))             basis   0.0     $((3.5484/v_b))  $((9.429714/v_c))              basis    0.0    0.0    0.0              basis    $((1.536500/v_a))    $((2.661296/v_b))    0.0          basis    0.0    0.0    $((5.026500/v_c))                basis    $((1.536500/v_a))    $((2.661296/v_b))    $((5.026500/v_c))            basis    0.0    $((1.774197/v_b))    $((2.513250/v_c))          basis    $((1.536500/v_a))    $((0.887099/v_b))    $((7.539750/v_c))            basis    $((1.536500/v_a))    $((4.435493/v_b))    $((2.513250/v_c))            basis    0    $((3.548395/v_b))    $((7.539750/v_c))
lattice custom  1.0             a1      3.073      0.0     0.0             a2      0.0     5.32259213165916      0.0             a3      0.0     0.0     10.053              basis   0.0    0.0    0.18799999999999997269         basis   0.5    0.49999998763204500651    0.18799999999999997269             basis   0.0    0.0    0.68799999999999994493         basis   $((1.536500/v_a))    $((2.661296/v_b))    $((6.916464/v_c))             basis   0.0    $((1.774197/v_b))    $((4.403214/v_c))           basis   $((1.536500/v_a))    $((0.887099/v_b))    $((9.429714/v_c))             basis   $((1.536500/v_a))    $((4.43549/v_b))     $((4.403214/v_c))             basis   0.0     $((3.5484/v_b))  $((9.429714/v_c))              basis    0.0    0.0    0.0              basis    $((1.536500/v_a))    $((2.661296/v_b))    0.0          basis    0.0    0.0    $((5.026500/v_c))                basis    $((1.536500/v_a))    $((2.661296/v_b))    $((5.026500/v_c))            basis    0.0    $((1.774197/v_b))    $((2.513250/v_c))          basis    $((1.536500/v_a))    $((0.887099/v_b))    $((7.539750/v_c))            basis    $((1.536500/v_a))    $((4.435493/v_b))    $((2.513250/v_c))            basis    0    $((3.548395/v_b))    $((7.539750/v_c))
lattice custom  1.0             a1      3.073      0.0     0.0             a2      0.0     5.32259213165916      0.0             a3      0.0     0.0     10.053              basis   0.0    0.0    0.18799999999999997269         basis   0.5    0.49999998763204500651    0.18799999999999997269             basis   0.0    0.0    0.68799999999999994493         basis   0.5    $((2.661296/v_b))    $((6.916464/v_c))             basis   0.0    $((1.774197/v_b))    $((4.403214/v_c))           basis   $((1.536500/v_a))    $((0.887099/v_b))    $((9.429714/v_c))             basis   $((1.536500/v_a))    $((4.43549/v_b))     $((4.403214/v_c))             basis   0.0     $((3.5484/v_b))  $((9.429714/v_c))              basis    0.0    0.0    0.0              basis    $((1.536500/v_a))    $((2.661296/v_b))    0.0          basis    0.0    0.0    $((5.026500/v_c))                basis    $((1.536500/v_a))    $((2.661296/v_b))    $((5.026500/v_c))            basis    0.0    $((1.774197/v_b))    $((2.513250/v_c))          basis    $((1.536500/v_a))    $((0.887099/v_b))    $((7.539750/v_c))            basis    $((1.536500/v_a))    $((4.435493/v_b))    $((2.513250/v_c))            basis    0    $((3.548395/v_b))    $((7.539750/v_c))
lattice custom  1.0             a1      3.073      0.0     0.0             a2      0.0     5.32259213165916      0.0             a3      0.0     0.0     10.053              basis   0.0    0.0    0.18799999999999997269         basis   0.5    0.49999998763204500651    0.18799999999999997269             basis   0.0    0.0    0.68799999999999994493         basis   0.5    0.49999998763204500651    $((6.916464/v_c))             basis   0.0    $((1.774197/v_b))    $((4.403214/v_c))           basis   $((1.536500/v_a))    $((0.887099/v_b))    $((9.429714/v_c))             basis   $((1.536500/v_a))    $((4.43549/v_b))     $((4.403214/v_c))             basis   0.0     $((3.5484/v_b))  $((9.429714/v_c))              basis    0.0    0.0    0.0              basis    $((1.536500/v_a))    $((2.661296/v_b))    0.0          basis    0.0    0.0    $((5.026500/v_c))                basis    $((1.536500/v_a))    $((2.661296/v_b))    $((5.026500/v_c))            basis    0.0    $((1.774197/v_b))    $((2.513250/v_c))          basis    $((1.536500/v_a))    $((0.887099/v_b))    $((7.539750/v_c))            basis    $((1.536500/v_a))    $((4.435493/v_b))    $((2.513250/v_c))            basis    0    $((3.548395/v_b))    $((7.539750/v_c))
lattice custom  1.0             a1      3.073      0.0     0.0             a2      0.0     5.32259213165916      0.0             a3      0.0     0.0     10.053              basis   0.0    0.0    0.18799999999999997269         basis   0.5    0.49999998763204500651    0.18799999999999997269             basis   0.0    0.0    0.68799999999999994493         basis   0.5    0.49999998763204500651    0.68799999999999994493             basis   0.0    $((1.774197/v_b))    $((4.403214/v_c))           basis   $((1.536500/v_a))    $((0.887099/v_b))    $((9.429714/v_c))             basis   $((1.536500/v_a))    $((4.43549/v_b))     $((4.403214/v_c))             basis   0.0     $((3.5484/v_b))  $((9.429714/v_c))              basis    0.0    0.0    0.0              basis    $((1.536500/v_a))    $((2.661296/v_b))    0.0          basis    0.0    0.0    $((5.026500/v_c))                basis    $((1.536500/v_a))    $((2.661296/v_b))    $((5.026500/v_c))            basis    0.0    $((1.774197/v_b))    $((2.513250/v_c))          basis    $((1.536500/v_a))    $((0.887099/v_b))    $((7.539750/v_c))            basis    $((1.536500/v_a))    $((4.435493/v_b))    $((2.513250/v_c))            basis    0    $((3.548395/v_b))    $((7.539750/v_c))
lattice custom  1.0             a1      3.073      0.0     0.0             a2      0.0     5.32259213165916      0.0             a3      0.0     0.0     10.053              basis   0.0    0.0    0.18799999999999997269         basis   0.5    0.49999998763204500651    0.18799999999999997269             basis   0.0    0.0    0.68799999999999994493         basis   0.5    0.49999998763204500651    0.68799999999999994493             basis   0.0    0.33333326246190253528    $((4.403214/v_c))           basis   $((1.536500/v_a))    $((0.887099/v_b))    $((9.429714/v_c))             basis   $((1.536500/v_a))    $((4.43549/v_b))     $((4.403214/v_c))             basis   0.0     $((3.5484/v_b))  $((9.429714/v_c))              basis    0.0    0.0    0.0              basis    $((1.536500/v_a))    $((2.661296/v_b))    0.0          basis    0.0    0.0    $((5.026500/v_c))                basis    $((1.536500/v_a))    $((2.661296/v_b))    $((5.026500/v_c))            basis    0.0    $((1.774197/v_b))    $((2.513250/v_c))          basis    $((1.536500/v_a))    $((0.887099/v_b))    $((7.539750/v_c))            basis    $((1.536500/v_a))    $((4.435493/v_b))    $((2.513250/v_c))            basis    0    $((3.548395/v_b))    $((7.539750/v_c))
lattice custom  1.0             a1      3.073      0.0     0.0             a2      0.0     5.32259213165916      0.0             a3      0.0     0.0     10.053              basis   0.0    0.0    0.18799999999999997269         basis   0.5    0.49999998763204500651    0.18799999999999997269             basis   0.0    0.0    0.68799999999999994493         basis   0.5    0.49999998763204500651    0.68799999999999994493             basis   0.0    0.33333326246190253528    0.43800000000000000044           basis   $((1.536500/v_a))    $((0.887099/v_b))    $((9.429714/v_c))             basis   $((1.536500/v_a))    $((4.43549/v_b))     $((4.403214/v_c))             basis   0.0     $((3.5484/v_b))  $((9.429714/v_c))              basis    0.0    0.0    0.0              basis    $((1.536500/v_a))    $((2.661296/v_b))    0.0          basis    0.0    0.0    $((5.026500/v_c))                basis    $((1.536500/v_a))    $((2.661296/v_b))    $((5.026500/v_c))            basis    0.0    $((1.774197/v_b))    $((2.513250/v_c))          basis    $((1.536500/v_a))    $((0.887099/v_b))    $((7.539750/v_c))            basis    $((1.536500/v_a))    $((4.435493/v_b))    $((2.513250/v_c))            basis    0    $((3.548395/v_b))    $((7.539750/v_c))
lattice custom  1.0             a1      3.073      0.0     0.0             a2      0.0     5.32259213165916      0.0             a3      0.0     0.0     10.053              basis   0.0    0.0    0.18799999999999997269         basis   0.5    0.49999998763204500651    0.18799999999999997269             basis   0.0    0.0    0.68799999999999994493         basis   0.5    0.49999998763204500651    0.68799999999999994493             basis   0.0    0.33333326246190253528    0.43800000000000000044           basis   0.5    $((0.887099/v_b))    $((9.429714/v_c))             basis   $((1.536500/v_a))    $((4.43549/v_b))     $((4.403214/v_c))             basis   0.0     $((3.5484/v_b))  $((9.429714/v_c))              basis    0.0    0.0    0.0              basis    $((1.536500/v_a))    $((2.661296/v_b))    0.0          basis    0.0    0.0    $((5.026500/v_c))                basis    $((1.536500/v_a))    $((2.661296/v_b))    $((5.026500/v_c))            basis    0.0    $((1.774197/v_b))    $((2.513250/v_c))          basis    $((1.536500/v_a))    $((0.887099/v_b))    $((7.539750/v_c))            basis    $((1.536500/v_a))    $((4.435493/v_b))    $((2.513250/v_c))            basis    0    $((3.548395/v_b))    $((7.539750/v_c))
lattice custom  1.0             a1      3.073      0.0     0.0             a2      0.0     5.32259213165916      0.0             a3      0.0     0.0     10.053              basis   0.0    0.0    0.18799999999999997269         basis   0.5    0.49999998763204500651    0.18799999999999997269             basis   0.0    0.0    0.68799999999999994493         basis   0.5    0.49999998763204500651    0.68799999999999994493             basis   0.0    0.33333326246190253528    0.43800000000000000044           basis   0.5    0.16666672517014247124    $((9.429714/v_c))             basis   $((1.536500/v_a))    $((4.43549/v_b))     $((4.403214/v_c))             basis   0.0     $((3.5484/v_b))  $((9.429714/v_c))              basis    0.0    0.0    0.0              basis    $((1.536500/v_a))    $((2.661296/v_b))    0.0          basis    0.0    0.0    $((5.026500/v_c))                basis    $((1.536500/v_a))    $((2.661296/v_b))    $((5.026500/v_c))            basis    0.0    $((1.774197/v_b))    $((2.513250/v_c))          basis    $((1.536500/v_a))    $((0.887099/v_b))    $((7.539750/v_c))            basis    $((1.536500/v_a))    $((4.435493/v_b))    $((2.513250/v_c))            basis    0    $((3.548395/v_b))    $((7.539750/v_c))
lattice custom  1.0             a1      3.073      0.0     0.0             a2      0.0     5.32259213165916      0.0             a3      0.0     0.0     10.053              basis   0.0    0.0    0.18799999999999997269         basis   0.5    0.49999998763204500651    0.18799999999999997269             basis   0.0    0.0    0.68799999999999994493         basis   0.5    0.49999998763204500651    0.68799999999999994493             basis   0.0    0.33333326246190253528    0.43800000000000000044           basis   0.5    0.16666672517014247124    0.93799999999999994493             basis   $((1.536500/v_a))    $((4.43549/v_b))     $((4.403214/v_c))             basis   0.0     $((3.5484/v_b))  $((9.429714/v_c))              basis    0.0    0.0    0.0              basis    $((1.536500/v_a))    $((2.661296/v_b))    0.0          basis    0.0    0.0    $((5.026500/v_c))                basis    $((1.536500/v_a))    $((2.661296/v_b))    $((5.026500/v_c))            basis    0.0    $((1.774197/v_b))    $((2.513250/v_c))          basis    $((1.536500/v_a))    $((0.887099/v_b))    $((7.539750/v_c))            basis    $((1.536500/v_a))    $((4.435493/v_b))    $((2.513250/v_c))            basis    0    $((3.548395/v_b))    $((7.539750/v_c))
lattice custom  1.0             a1      3.073      0.0     0.0             a2      0.0     5.32259213165916      0.0             a3      0.0     0.0     10.053              basis   0.0    0.0    0.18799999999999997269         basis   0.5    0.49999998763204500651    0.18799999999999997269             basis   0.0    0.0    0.68799999999999994493         basis   0.5    0.49999998763204500651    0.68799999999999994493             basis   0.0    0.33333326246190253528    0.43800000000000000044           basis   0.5    0.16666672517014247124    0.93799999999999994493             basis   0.5    $((4.43549/v_b))     $((4.403214/v_c))             basis   0.0     $((3.5484/v_b))  $((9.429714/v_c))              basis    0.0    0.0    0.0              basis    $((1.536500/v_a))    $((2.661296/v_b))    0.0          basis    0.0    0.0    $((5.026500/v_c))                basis    $((1.536500/v_a))    $((2.661296/v_b))    $((5.026500/v_c))            basis    0.0    $((1.774197/v_b))    $((2.513250/v_c))          basis    $((1.536500/v_a))    $((0.887099/v_b))    $((7.539750/v_c))            basis    $((1.536500/v_a))    $((4.435493/v_b))    $((2.513250/v_c))            basis    0    $((3.548395/v_b))    $((7.539750/v_c))
lattice custom  1.0             a1      3.073      0.0     0.0             a2      0.0     5.32259213165916      0.0             a3      0.0     0.0     10.053              basis   0.0    0.0    0.18799999999999997269         basis   0.5    0.49999998763204500651    0.18799999999999997269             basis   0.0    0.0    0.68799999999999994493         basis   0.5    0.49999998763204500651    0.68799999999999994493             basis   0.0    0.33333326246190253528    0.43800000000000000044           basis   0.5    0.16666672517014247124    0.93799999999999994493             basis   0.5    0.83333268645880009817     $((4.403214/v_c))             basis   0.0     $((3.5484/v_b))  $((9.429714/v_c))              basis    0.0    0.0    0.0              basis    $((1.536500/v_a))    $((2.661296/v_b))    0.0          basis    0.0    0.0    $((5.026500/v_c))                basis    $((1.536500/v_a))    $((2.661296/v_b))    $((5.026500/v_c))            basis    0.0    $((1.774197/v_b))    $((2.513250/v_c))          basis    $((1.536500/v_a))    $((0.887099/v_b))    $((7.539750/v_c))            basis    $((1.536500/v_a))    $((4.435493/v_b))    $((2.513250/v_c))            basis    0    $((3.548395/v_b))    $((7.539750/v_c))
lattice custom  1.0             a1      3.073      0.0     0.0             a2      0.0     5.32259213165916      0.0             a3      0.0     0.0     10.053              basis   0.0    0.0    0.18799999999999997269         basis   0.5    0.49999998763204500651    0.18799999999999997269             basis   0.0    0.0    0.68799999999999994493         basis   0.5    0.49999998763204500651    0.68799999999999994493             basis   0.0    0.33333326246190253528    0.43800000000000000044           basis   0.5    0.16666672517014247124    0.93799999999999994493             basis   0.5    0.83333268645880009817     0.43800000000000000044             basis   0.0     $((3.5484/v_b))  $((9.429714/v_c))              basis    0.0    0.0    0.0              basis    $((1.536500/v_a))    $((2.661296/v_b))    0.0          basis    0.0    0.0    $((5.026500/v_c))                basis    $((1.536500/v_a))    $((2.661296/v_b))    $((5.026500/v_c))            basis    0.0    $((1.774197/v_b))    $((2.513250/v_c))          basis    $((1.536500/v_a))    $((0.887099/v_b))    $((7.539750/v_c))            basis    $((1.536500/v_a))    $((4.435493/v_b))    $((2.513250/v_c))            basis    0    $((3.548395/v_b))    $((7.539750/v_c))
lattice custom  1.0             a1      3.073      0.0     0.0             a2      0.0     5.32259213165916      0.0             a3      0.0     0.0     10.053              basis   0.0    0.0    0.18799999999999997269         basis   0.5    0.49999998763204500651    0.18799999999999997269             basis   0.0    0.0    0.68799999999999994493         basis   0.5    0.49999998763204500651    0.68799999999999994493             basis   0.0    0.33333326246190253528    0.43800000000000000044           basis   0.5    0.16666672517014247124    0.93799999999999994493             basis   0.5    0.83333268645880009817     0.43800000000000000044             basis   0.0     0.66666765219409951371  $((9.429714/v_c))              basis    0.0    0.0    0.0              basis    $((1.536500/v_a))    $((2.661296/v_b))    0.0          basis    0.0    0.0    $((5.026500/v_c))                basis    $((1.536500/v_a))    $((2.661296/v_b))    $((5.026500/v_c))            basis    0.0    $((1.774197/v_b))    $((2.513250/v_c))          basis    $((1.536500/v_a))    $((0.887099/v_b))    $((7.539750/v_c))            basis    $((1.536500/v_a))    $((4.435493/v_b))    $((2.513250/v_c))            basis    0    $((3.548395/v_b))    $((7.539750/v_c))
lattice custom  1.0             a1      3.073      0.0     0.0             a2      0.0     5.32259213165916      0.0             a3      0.0     0.0     10.053              basis   0.0    0.0    0.18799999999999997269         basis   0.5    0.49999998763204500651    0.18799999999999997269             basis   0.0    0.0    0.68799999999999994493         basis   0.5    0.49999998763204500651    0.68799999999999994493             basis   0.0    0.33333326246190253528    0.43800000000000000044           basis   0.5    0.16666672517014247124    0.93799999999999994493             basis   0.5    0.83333268645880009817     0.43800000000000000044             basis   0.0     0.66666765219409951371  0.93799999999999994493              basis    0.0    0.0    0.0              basis    $((1.536500/v_a))    $((2.661296/v_b))    0.0          basis    0.0    0.0    $((5.026500/v_c))                basis    $((1.536500/v_a))    $((2.661296/v_b))    $((5.026500/v_c))            basis    0.0    $((1.774197/v_b))    $((2.513250/v_c))          basis    $((1.536500/v_a))    $((0.887099/v_b))    $((7.539750/v_c))            basis    $((1.536500/v_a))    $((4.435493/v_b))    $((2.513250/v_c))            basis    0    $((3.548395/v_b))    $((7.539750/v_c))
lattice custom  1.0             a1      3.073      0.0     0.0             a2      0.0     5.32259213165916      0.0             a3      0.0     0.0     10.053              basis   0.0    0.0    0.18799999999999997269         basis   0.5    0.49999998763204500651    0.18799999999999997269             basis   0.0    0.0    0.68799999999999994493         basis   0.5    0.49999998763204500651    0.68799999999999994493             basis   0.0    0.33333326246190253528    0.43800000000000000044           basis   0.5    0.16666672517014247124    0.93799999999999994493             basis   0.5    0.83333268645880009817     0.43800000000000000044             basis   0.0     0.66666765219409951371  0.93799999999999994493              basis    0.0    0.0    0.0              basis    0.5    $((2.661296/v_b))    0.0          basis    0.0    0.0    $((5.026500/v_c))                basis    $((1.536500/v_a))    $((2.661296/v_b))    $((5.026500/v_c))            basis    0.0    $((1.774197/v_b))    $((2.513250/v_c))          basis    $((1.536500/v_a))    $((0.887099/v_b))    $((7.539750/v_c))            basis    $((1.536500/v_a))    $((4.435493/v_b))    $((2.513250/v_c))            basis    0    $((3.548395/v_b))    $((7.539750/v_c))
lattice custom  1.0             a1      3.073      0.0     0.0             a2      0.0     5.32259213165916      0.0             a3      0.0     0.0     10.053              basis   0.0    0.0    0.18799999999999997269         basis   0.5    0.49999998763204500651    0.18799999999999997269             basis   0.0    0.0    0.68799999999999994493         basis   0.5    0.49999998763204500651    0.68799999999999994493             basis   0.0    0.33333326246190253528    0.43800000000000000044           basis   0.5    0.16666672517014247124    0.93799999999999994493             basis   0.5    0.83333268645880009817     0.43800000000000000044             basis   0.0     0.66666765219409951371  0.93799999999999994493              basis    0.0    0.0    0.0              basis    0.5    0.49999998763204500651    0.0          basis    0.0    0.0    $((5.026500/v_c))                basis    $((1.536500/v_a))    $((2.661296/v_b))    $((5.026500/v_c))            basis    0.0    $((1.774197/v_b))    $((2.513250/v_c))          basis    $((1.536500/v_a))    $((0.887099/v_b))    $((7.539750/v_c))            basis    $((1.536500/v_a))    $((4.435493/v_b))    $((2.513250/v_c))            basis    0    $((3.548395/v_b))    $((7.539750/v_c))
lattice custom  1.0             a1      3.073      0.0     0.0             a2      0.0     5.32259213165916      0.0             a3      0.0     0.0     10.053              basis   0.0    0.0    0.18799999999999997269         basis   0.5    0.49999998763204500651    0.18799999999999997269             basis   0.0    0.0    0.68799999999999994493         basis   0.5    0.49999998763204500651    0.68799999999999994493             basis   0.0    0.33333326246190253528    0.43800000000000000044           basis   0.5    0.16666672517014247124    0.93799999999999994493             basis   0.5    0.83333268645880009817     0.43800000000000000044             basis   0.0     0.66666765219409951371  0.93799999999999994493              basis    0.0    0.0    0.0              basis    0.5    0.49999998763204500651    0.0          basis    0.0    0.0    0.5                basis    $((1.536500/v_a))    $((2.661296/v_b))    $((5.026500/v_c))            basis    0.0    $((1.774197/v_b))    $((2.513250/v_c))          basis    $((1.536500/v_a))    $((0.887099/v_b))    $((7.539750/v_c))            basis    $((1.536500/v_a))    $((4.435493/v_b))    $((2.513250/v_c))            basis    0    $((3.548395/v_b))    $((7.539750/v_c))
lattice custom  1.0             a1      3.073      0.0     0.0             a2      0.0     5.32259213165916      0.0             a3      0.0     0.0     10.053              basis   0.0    0.0    0.18799999999999997269         basis   0.5    0.49999998763204500651    0.18799999999999997269             basis   0.0    0.0    0.68799999999999994493         basis   0.5    0.49999998763204500651    0.68799999999999994493             basis   0.0    0.33333326246190253528    0.43800000000000000044           basis   0.5    0.16666672517014247124    0.93799999999999994493             basis   0.5    0.83333268645880009817     0.43800000000000000044             basis   0.0     0.66666765219409951371  0.93799999999999994493              basis    0.0    0.0    0.0              basis    0.5    0.49999998763204500651    0.0          basis    0.0    0.0    0.5                basis    0.5    $((2.661296/v_b))    $((5.026500/v_c))            basis    0.0    $((1.774197/v_b))    $((2.513250/v_c))          basis    $((1.536500/v_a))    $((0.887099/v_b))    $((7.539750/v_c))            basis    $((1.536500/v_a))    $((4.435493/v_b))    $((2.513250/v_c))            basis    0    $((3.548395/v_b))    $((7.539750/v_c))
lattice custom  1.0             a1      3.073      0.0     0.0             a2      0.0     5.32259213165916      0.0             a3      0.0     0.0     10.053              basis   0.0    0.0    0.18799999999999997269         basis   0.5    0.49999998763204500651    0.18799999999999997269             basis   0.0    0.0    0.68799999999999994493         basis   0.5    0.49999998763204500651    0.68799999999999994493             basis   0.0    0.33333326246190253528    0.43800000000000000044           basis   0.5    0.16666672517014247124    0.93799999999999994493             basis   0.5    0.83333268645880009817     0.43800000000000000044             basis   0.0     0.66666765219409951371  0.93799999999999994493              basis    0.0    0.0    0.0              basis    0.5    0.49999998763204500651    0.0          basis    0.0    0.0    0.5                basis    0.5    0.49999998763204500651    $((5.026500/v_c))            basis    0.0    $((1.774197/v_b))    $((2.513250/v_c))          basis    $((1.536500/v_a))    $((0.887099/v_b))    $((7.539750/v_c))            basis    $((1.536500/v_a))    $((4.435493/v_b))    $((2.513250/v_c))            basis    0    $((3.548395/v_b))    $((7.539750/v_c))
lattice custom  1.0             a1      3.073      0.0     0.0             a2      0.0     5.32259213165916      0.0             a3      0.0     0.0     10.053              basis   0.0    0.0    0.18799999999999997269         basis   0.5    0.49999998763204500651    0.18799999999999997269             basis   0.0    0.0    0.68799999999999994493         basis   0.5    0.49999998763204500651    0.68799999999999994493             basis   0.0    0.33333326246190253528    0.43800000000000000044           basis   0.5    0.16666672517014247124    0.93799999999999994493             basis   0.5    0.83333268645880009817     0.43800000000000000044             basis   0.0     0.66666765219409951371  0.93799999999999994493              basis    0.0    0.0    0.0              basis    0.5    0.49999998763204500651    0.0          basis    0.0    0.0    0.5                basis    0.5    0.49999998763204500651    0.5            basis    0.0    $((1.774197/v_b))    $((2.513250/v_c))          basis    $((1.536500/v_a))    $((0.887099/v_b))    $((7.539750/v_c))            basis    $((1.536500/v_a))    $((4.435493/v_b))    $((2.513250/v_c))            basis    0    $((3.548395/v_b))    $((7.539750/v_c))
lattice custom  1.0             a1      3.073      0.0     0.0             a2      0.0     5.32259213165916      0.0             a3      0.0     0.0     10.053              basis   0.0    0.0    0.18799999999999997269         basis   0.5    0.49999998763204500651    0.18799999999999997269             basis   0.0    0.0    0.68799999999999994493         basis   0.5    0.49999998763204500651    0.68799999999999994493             basis   0.0    0.33333326246190253528    0.43800000000000000044           basis   0.5    0.16666672517014247124    0.93799999999999994493             basis   0.5    0.83333268645880009817     0.43800000000000000044             basis   0.0     0.66666765219409951371  0.93799999999999994493              basis    0.0    0.0    0.0              basis    0.5    0.49999998763204500651    0.0          basis    0.0    0.0    0.5                basis    0.5    0.49999998763204500651    0.5            basis    0.0    0.33333326246190253528    $((2.513250/v_c))          basis    $((1.536500/v_a))    $((0.887099/v_b))    $((7.539750/v_c))            basis    $((1.536500/v_a))    $((4.435493/v_b))    $((2.513250/v_c))            basis    0    $((3.548395/v_b))    $((7.539750/v_c))
lattice custom  1.0             a1      3.073      0.0     0.0             a2      0.0     5.32259213165916      0.0             a3      0.0     0.0     10.053              basis   0.0    0.0    0.18799999999999997269         basis   0.5    0.49999998763204500651    0.18799999999999997269             basis   0.0    0.0    0.68799999999999994493         basis   0.5    0.49999998763204500651    0.68799999999999994493             basis   0.0    0.33333326246190253528    0.43800000000000000044           basis   0.5    0.16666672517014247124    0.93799999999999994493             basis   0.5    0.83333268645880009817     0.43800000000000000044             basis   0.0     0.66666765219409951371  0.93799999999999994493              basis    0.0    0.0    0.0              basis    0.5    0.49999998763204500651    0.0          basis    0.0    0.0    0.5                basis    0.5    0.49999998763204500651    0.5            basis    0.0    0.33333326246190253528    0.25          basis    $((1.536500/v_a))    $((0.887099/v_b))    $((7.539750/v_c))            basis    $((1.536500/v_a))    $((4.435493/v_b))    $((2.513250/v_c))            basis    0    $((3.548395/v_b))    $((7.539750/v_c))
lattice custom  1.0             a1      3.073      0.0     0.0             a2      0.0     5.32259213165916      0.0             a3      0.0     0.0     10.053              basis   0.0    0.0    0.18799999999999997269         basis   0.5    0.49999998763204500651    0.18799999999999997269             basis   0.0    0.0    0.68799999999999994493         basis   0.5    0.49999998763204500651    0.68799999999999994493             basis   0.0    0.33333326246190253528    0.43800000000000000044           basis   0.5    0.16666672517014247124    0.93799999999999994493             basis   0.5    0.83333268645880009817     0.43800000000000000044             basis   0.0     0.66666765219409951371  0.93799999999999994493              basis    0.0    0.0    0.0              basis    0.5    0.49999998763204500651    0.0          basis    0.0    0.0    0.5                basis    0.5    0.49999998763204500651    0.5            basis    0.0    0.33333326246190253528    0.25          basis    0.5    $((0.887099/v_b))    $((7.539750/v_c))            basis    $((1.536500/v_a))    $((4.435493/v_b))    $((2.513250/v_c))            basis    0    $((3.548395/v_b))    $((7.539750/v_c))
lattice custom  1.0             a1      3.073      0.0     0.0             a2      0.0     5.32259213165916      0.0             a3      0.0     0.0     10.053              basis   0.0    0.0    0.18799999999999997269         basis   0.5    0.49999998763204500651    0.18799999999999997269             basis   0.0    0.0    0.68799999999999994493         basis   0.5    0.49999998763204500651    0.68799999999999994493             basis   0.0    0.33333326246190253528    0.43800000000000000044           basis   0.5    0.16666672517014247124    0.93799999999999994493             basis   0.5    0.83333268645880009817     0.43800000000000000044             basis   0.0     0.66666765219409951371  0.93799999999999994493              basis    0.0    0.0    0.0              basis    0.5    0.49999998763204500651    0.0          basis    0.0    0.0    0.5                basis    0.5    0.49999998763204500651    0.5            basis    0.0    0.33333326246190253528    0.25          basis    0.5    0.16666672517014247124    $((7.539750/v_c))            basis    $((1.536500/v_a))    $((4.435493/v_b))    $((2.513250/v_c))            basis    0    $((3.548395/v_b))    $((7.539750/v_c))
lattice custom  1.0             a1      3.073      0.0     0.0             a2      0.0     5.32259213165916      0.0             a3      0.0     0.0     10.053              basis   0.0    0.0    0.18799999999999997269         basis   0.5    0.49999998763204500651    0.18799999999999997269             basis   0.0    0.0    0.68799999999999994493         basis   0.5    0.49999998763204500651    0.68799999999999994493             basis   0.0    0.33333326246190253528    0.43800000000000000044           basis   0.5    0.16666672517014247124    0.93799999999999994493             basis   0.5    0.83333268645880009817     0.43800000000000000044             basis   0.0     0.66666765219409951371  0.93799999999999994493              basis    0.0    0.0    0.0              basis    0.5    0.49999998763204500651    0.0          basis    0.0    0.0    0.5                basis    0.5    0.49999998763204500651    0.5            basis    0.0    0.33333326246190253528    0.25          basis    0.5    0.16666672517014247124    0.74999999999999988898            basis    $((1.536500/v_a))    $((4.435493/v_b))    $((2.513250/v_c))            basis    0    $((3.548395/v_b))    $((7.539750/v_c))
lattice custom  1.0             a1      3.073      0.0     0.0             a2      0.0     5.32259213165916      0.0             a3      0.0     0.0     10.053              basis   0.0    0.0    0.18799999999999997269         basis   0.5    0.49999998763204500651    0.18799999999999997269             basis   0.0    0.0    0.68799999999999994493         basis   0.5    0.49999998763204500651    0.68799999999999994493             basis   0.0    0.33333326246190253528    0.43800000000000000044           basis   0.5    0.16666672517014247124    0.93799999999999994493             basis   0.5    0.83333268645880009817     0.43800000000000000044             basis   0.0     0.66666765219409951371  0.93799999999999994493              basis    0.0    0.0    0.0              basis    0.5    0.49999998763204500651    0.0          basis    0.0    0.0    0.5                basis    0.5    0.49999998763204500651    0.5            basis    0.0    0.33333326246190253528    0.25          basis    0.5    0.16666672517014247124    0.74999999999999988898            basis    0.5    $((4.435493/v_b))    $((2.513250/v_c))            basis    0    $((3.548395/v_b))    $((7.539750/v_c))
lattice custom  1.0             a1      3.073      0.0     0.0             a2      0.0     5.32259213165916      0.0             a3      0.0     0.0     10.053              basis   0.0    0.0    0.18799999999999997269         basis   0.5    0.49999998763204500651    0.18799999999999997269             basis   0.0    0.0    0.68799999999999994493         basis   0.5    0.49999998763204500651    0.68799999999999994493             basis   0.0    0.33333326246190253528    0.43800000000000000044           basis   0.5    0.16666672517014247124    0.93799999999999994493             basis   0.5    0.83333268645880009817     0.43800000000000000044             basis   0.0     0.66666765219409951371  0.93799999999999994493              basis    0.0    0.0    0.0              basis    0.5    0.49999998763204500651    0.0          basis    0.0    0.0    0.5                basis    0.5    0.49999998763204500651    0.5            basis    0.0    0.33333326246190253528    0.25          basis    0.5    0.16666672517014247124    0.74999999999999988898            basis    0.5    0.83333325009394754179    $((2.513250/v_c))            basis    0    $((3.548395/v_b))    $((7.539750/v_c))
lattice custom  1.0             a1      3.073      0.0     0.0             a2      0.0     5.32259213165916      0.0             a3      0.0     0.0     10.053              basis   0.0    0.0    0.18799999999999997269         basis   0.5    0.49999998763204500651    0.18799999999999997269             basis   0.0    0.0    0.68799999999999994493         basis   0.5    0.49999998763204500651    0.68799999999999994493             basis   0.0    0.33333326246190253528    0.43800000000000000044           basis   0.5    0.16666672517014247124    0.93799999999999994493             basis   0.5    0.83333268645880009817     0.43800000000000000044             basis   0.0     0.66666765219409951371  0.93799999999999994493              basis    0.0    0.0    0.0              basis    0.5    0.49999998763204500651    0.0          basis    0.0    0.0    0.5                basis    0.5    0.49999998763204500651    0.5            basis    0.0    0.33333326246190253528    0.25          basis    0.5    0.16666672517014247124    0.74999999999999988898            basis    0.5    0.83333325009394754179    0.25            basis    0    $((3.548395/v_b))    $((7.539750/v_c))
lattice custom  1.0             a1      3.073      0.0     0.0             a2      0.0     5.32259213165916      0.0             a3      0.0     0.0     10.053              basis   0.0    0.0    0.18799999999999997269         basis   0.5    0.49999998763204500651    0.18799999999999997269             basis   0.0    0.0    0.68799999999999994493         basis   0.5    0.49999998763204500651    0.68799999999999994493             basis   0.0    0.33333326246190253528    0.43800000000000000044           basis   0.5    0.16666672517014247124    0.93799999999999994493             basis   0.5    0.83333268645880009817     0.43800000000000000044             basis   0.0     0.66666765219409951371  0.93799999999999994493              basis    0.0    0.0    0.0              basis    0.5    0.49999998763204500651    0.0          basis    0.0    0.0    0.5                basis    0.5    0.49999998763204500651    0.5            basis    0.0    0.33333326246190253528    0.25          basis    0.5    0.16666672517014247124    0.74999999999999988898            basis    0.5    0.83333325009394754179    0.25            basis    0    0.66666671280218747775    $((7.539750/v_c))
lattice custom  1.0             a1      3.073      0.0     0.0             a2      0.0     5.32259213165916      0.0             a3      0.0     0.0     10.053              basis   0.0    0.0    0.18799999999999997269         basis   0.5    0.49999998763204500651    0.18799999999999997269             basis   0.0    0.0    0.68799999999999994493         basis   0.5    0.49999998763204500651    0.68799999999999994493             basis   0.0    0.33333326246190253528    0.43800000000000000044           basis   0.5    0.16666672517014247124    0.93799999999999994493             basis   0.5    0.83333268645880009817     0.43800000000000000044             basis   0.0     0.66666765219409951371  0.93799999999999994493              basis    0.0    0.0    0.0              basis    0.5    0.49999998763204500651    0.0          basis    0.0    0.0    0.5                basis    0.5    0.49999998763204500651    0.5            basis    0.0    0.33333326246190253528    0.25          basis    0.5    0.16666672517014247124    0.74999999999999988898            basis    0.5    0.83333325009394754179    0.25            basis    0    0.66666671280218747775    0.74999999999999988898
Lattice spacing in x,y,z = 3.073 5.32259 10.053


region box1 block -1  289  0  290  -45 0  side in units box
create_atoms    3 region box1                   basis   1       4               basis   2       4               basis   3       4               basis   4       4               basis   5       4               basis   6       4               basis   7       4               basis   8       4
Created 370826 atoms
  create_atoms CPU = 0.0151211 secs
# group Si type 3
# group C type 4

#####势函数
pair_style hybrid tersoff lj/cut/tip4p/long 2 1 1 1 0.125 12.0 lj/cut 10.0
pair_coeff	 * * tersoff SiCC.txt NULL NULL  Si C
Reading potential file SiCC.txt with DATE: 2009-05-05

pair_coeff     2 2 lj/cut/tip4p/long 0.009143 3.16435                                         #0000
pair_coeff     1 1 lj/cut/tip4p/long 0.00000 0.00000
pair_coeff     1 2 lj/cut/tip4p/long 0.00000 0.00000

pair_coeff     1 3 lj/cut 0.0000 0.0000
pair_coeff     2 3 lj/cut 0.0065 2.63    #0.0035�����쵥λ��3.262�Ǿ��뵥λ 0.0243
pair_coeff     1 4 lj/cut 0.0000 0.0000
pair_coeff     2 4 lj/cut 0.005 3.19    #0.0035�����쵥λ��3.262�Ǿ��뵥λ

bond_style     harmonic
bond_coeff     1 19.514 0.9572

angle_style    harmonic
angle_coeff    1 2.385 104.52
kspace_style   pppm/tip4p 1.0e-4
timestep       0.002

neighbor       2.0 bin
neigh_modify   delay 0 every 1 check yes

write_data SiC-H2o
PPPM initialization ...
  extracting TIP4P info from pair style
  using 12-bit tables for long-range coulomb (src/kspace.cpp:332)
  G vector (1/distance) = 0.203408
  grid = 90 90 30
  stencil order = 5
  estimated absolute RMS force accuracy = 0.00149412
  estimated relative force accuracy = 0.000103761
  using double precision FFTW3
  3d grid and FFT values/proc = 10115 4320
WARNING: Using a manybody potential with bonds/angles/dihedrals and special_bond exclusions (src/pair.cpp:226)
Neighbor list info ...
  update every 1 steps, delay 0 steps, check yes
  max neighbors/atom: 2000, page size: 100000
  master list distance cutoff = 14.25
  ghost atom cutoff = 14.25
  binsize = 7.125, bins = 41 41 10
  5 neighbor lists, perpetual/occasional/extra = 5 0 0
  (1) pair tersoff, perpetual, skip from (4)
      attributes: full, newton on
      pair build: skip
      stencil: none
      bin: none
  (2) pair lj/cut/tip4p/long, perpetual, skip from (5)
      attributes: half, newton on
      pair build: skip
      stencil: none
      bin: none
  (3) pair lj/cut, perpetual, skip from (5)
      attributes: half, newton on
      pair build: skip
      stencil: none
      bin: none
  (4) neighbor class addition, perpetual
      attributes: full, newton on
      pair build: full/bin
      stencil: full/bin/3d
      bin: standard
  (5) neighbor class addition, perpetual, half/full from (4)
      attributes: half, newton on
      pair build: halffull/newton
      stencil: none
      bin: none
#*********************************************************
dump  2  all atom 5000 dump0.lampstrj                                                        #0000000000
min_style      cg
minimize       1.0e-10 1.0e-10 1000 1000
PPPM initialization ...
  extracting TIP4P info from pair style
  using 12-bit tables for long-range coulomb (src/kspace.cpp:332)
  G vector (1/distance) = 0.203408
  grid = 90 90 30
  stencil order = 5
  estimated absolute RMS force accuracy = 0.00149412
  estimated relative force accuracy = 0.000103761
  using double precision FFTW3
  3d grid and FFT values/proc = 10115 4320
WARNING: Using a manybody potential with bonds/angles/dihedrals and special_bond exclusions (src/pair.cpp:226)
Neighbor list info ...
  update every 1 steps, delay 0 steps, check yes
  max neighbors/atom: 2000, page size: 100000
  master list distance cutoff = 14.25
  ghost atom cutoff = 14.25
  binsize = 7.125, bins = 41 41 10
  5 neighbor lists, perpetual/occasional/extra = 5 0 0
  (1) pair tersoff, perpetual, skip from (4)
      attributes: full, newton on
      pair build: skip
      stencil: none
      bin: none
  (2) pair lj/cut/tip4p/long, perpetual, skip from (5)
      attributes: half, newton on
      pair build: skip
      stencil: none
      bin: none
  (3) pair lj/cut, perpetual, skip from (5)
      attributes: half, newton on
      pair build: skip
      stencil: none
      bin: none
  (4) neighbor class addition, perpetual
      attributes: full, newton on
      pair build: full/bin
      stencil: full/bin/3d
      bin: standard
  (5) neighbor class addition, perpetual, half/full from (4)
      attributes: half, newton on
      pair build: halffull/newton
      stencil: none
      bin: none
Per MPI rank memory allocation (min/avg/max) = 54.18 | 56.07 | 57.24 Mbytes
Step Temp E_pair E_mol TotEng Press 
       0            0 7.7578463e+13     2650.088 7.7578463e+13 8.4453471e+13 
     405            0   -2354677.3    1619.6359   -2353057.7     18544.55 
Loop time of 57.0247 on 64 procs for 405 steps with 528623 atoms

94.4% CPU use with 64 MPI tasks x 1 OpenMP threads

Minimization stats:
  Stopping criterion = energy tolerance
  Energy initial, next-to-last, final = 
     7.75784634988e+13     -2353057.65779       -2353057.658
  Force two-norm initial, final = 8.65644e+15 16.7464
  Force max component initial, final = 5.04791e+15 2.96113
  Final line search alpha, max atom move = 0.0584939 0.173208
  Iterations, force evaluations = 405 810

MPI task timing breakdown:
Section |  min time  |  avg time  |  max time  |%varavg| %total
---------------------------------------------------------------
Pair    | 32.797     | 34.792     | 36.543     |  15.3 | 61.01
Bond    | 0.05558    | 0.061568   | 0.067094   |   1.3 |  0.11
Kspace  | 10.086     | 12.318     | 15.037     |  30.3 | 21.60
Neigh   | 1.8447     | 1.8559     | 1.8753     |   0.6 |  3.25
Comm    | 4.8018     | 5.8297     | 6.5812     |  18.2 | 10.22
Output  | 0          | 0          | 0          |   0.0 |  0.00
Modify  | 0          | 0          | 0          |   0.0 |  0.00
Other   |            | 2.168      |            |       |  3.80

Nlocal:    8259.73 ave 8472 max 7819 min
Histogram: 3 0 1 5 7 12 1 5 12 18
Nghost:    27193 ave 27766 max 26354 min
Histogram: 1 2 3 8 4 14 10 9 9 4
Neighs:    1.08673e+06 ave 1.15401e+06 max 988862 min
Histogram: 2 0 2 4 10 12 14 12 5 3
FullNghs:  259571 ave 267072 max 244447 min
Histogram: 3 0 6 0 16 4 0 10 1 24

Total # of neighbors = 69550657
Ave neighs/atom = 131.569
Ave special neighs/atom = 0.597011
Neighbor list builds = 8
Dangerous builds = 0
#**************************************************************
group H type 1
105198 atoms in group H
group O type 2
52599 atoms in group O
group water type 1 2
157797 atoms in group water
group SiC type 3 4
370826 atoms in group SiC

region lock1 block   50  100  50    100  -30   -20  side in units box
region lock2 block   150 200  150   200  -30   -20  side in units box

group lock11 region lock1
2476 atoms in group lock11
group lock22 region lock2
2474 atoms in group lock22
group lock1 intersect lock11 SiC
2476 atoms in group lock1
group lock2 intersect lock22 SiC
2474 atoms in group lock2
fix 1 water shake 0.0001 20 0 b 1 a 1
  0 = # of size 2 clusters
  0 = # of size 3 clusters
  0 = # of size 4 clusters
  52599 = # of frozen angles
  find clusters CPU = 0.0189941 secs
fix 2 water nvt temp 293.15 293.15 1.0                                                              #000000000011111111111
velocity      SiC create 20.0 123 loop all
velocity   lock1  set 0.0 0.0 0.0 units box
fix    lock1         lock1 setforce 0.0 0.0 0.0
velocity   lock2  set 0.0 0.0 0.0 units box
fix    lock2         lock1 setforce 0.0 0.0 0.0
#************************************************�������ѧ��Ϣ����#####################
#compute 1 all temp  #��������ϵ�¶�
#compute 2 all ke/atom #���㵥�����ӵĶ��� dump�����
#compute 3 water ke   #����ˮ��ϵ����
compute 4 water temp  #����ˮ��ϵ���¶�
compute 5 SiC temp   #�������ϵ���¶�
compute 33 O chunk/atom bin/1d z 0.0 1.0  units box                                                         ####$$$$$$$$$$$$$$$$$$$$
thermo_style  custom  step temp c_4 c_5                                                             #00000000001111111111
thermo 1000  #���ÿN��������ѧ                                                                     #00000000001111111111
#****************************************************
run 20000                                                                                           #0000000000
PPPM initialization ...
  extracting TIP4P info from pair style
  using 12-bit tables for long-range coulomb (src/kspace.cpp:332)
  G vector (1/distance) = 0.203408
  grid = 90 90 30
  stencil order = 5
  estimated absolute RMS force accuracy = 0.00149412
  estimated relative force accuracy = 0.000103761
  using double precision FFTW3
  3d grid and FFT values/proc = 10115 4320
WARNING: Using a manybody potential with bonds/angles/dihedrals and special_bond exclusions (src/pair.cpp:226)
Neighbor list info ...
  update every 1 steps, delay 0 steps, check yes
  max neighbors/atom: 2000, page size: 100000
  master list distance cutoff = 14.25
  ghost atom cutoff = 14.25
  binsize = 7.125, bins = 41 41 10
  5 neighbor lists, perpetual/occasional/extra = 5 0 0
  (1) pair tersoff, perpetual, skip from (4)
      attributes: full, newton on
      pair build: skip
      stencil: none
      bin: none
  (2) pair lj/cut/tip4p/long, perpetual, skip from (5)
      attributes: half, newton on
      pair build: skip
      stencil: none
      bin: none
  (3) pair lj/cut, perpetual, skip from (5)
      attributes: half, newton on
      pair build: skip
      stencil: none
      bin: none
  (4) neighbor class addition, perpetual
      attributes: full, newton on
      pair build: full/bin
      stencil: full/bin/3d
      bin: standard
  (5) neighbor class addition, perpetual, half/full from (4)
      attributes: half, newton on
      pair build: halffull/newton
      stencil: none
      bin: none
Per MPI rank memory allocation (min/avg/max) = 54.55 | 55.97 | 56.87 Mbytes
Step Temp c_4 c_5 
     405    15.370478            0    19.730874 
    1000    28.292812    58.474368    19.730874 
    2000     33.52662    82.157676    19.730874 
    3000    38.085045    102.78483    19.730874 
    4000    43.310184    126.42891    19.730874 
    5000    49.037119    152.34365    19.730874 
    6000    55.224611    180.34244    19.730874 
    7000    61.375317    208.17477    19.730874 
    8000    66.824397     232.8322    19.730874 
    9000    71.538943    254.16581    19.730874 
   10000    75.398784    271.63183    19.730874 
   11000    78.727318    286.69366    19.730874 
   12000    80.784553    296.00278    19.730874 
   13000    80.887116    296.46688    19.730874 
   14000    79.736388    291.25976    19.730874 
   15000    79.526915    290.31189    19.730874 
   16000    80.331529    293.95281    19.730874 
   17000    80.453183    294.50331    19.730874 
   18000     79.80199    291.55662    19.730874 
   19000    79.878779    291.90409    19.730874 
   20000     80.41688    294.33903    19.730874 
   20405    80.506545    294.74477    19.730874 
Loop time of 3294.25 on 64 procs for 20000 steps with 528623 atoms

Performance: 1.049 ns/day, 22.877 hours/ns, 6.071 timesteps/s
94.8% CPU use with 64 MPI tasks x 1 OpenMP threads

MPI task timing breakdown:
Section |  min time  |  avg time  |  max time  |%varavg| %total
---------------------------------------------------------------
Pair    | 786.96     | 1054.7     | 1295.5     | 572.0 | 32.02
Bond    | 0.01808    | 0.099908   | 0.26375    |  19.6 |  0.00
Kspace  | 393.76     | 644.32     | 936.03     | 787.9 | 19.56
Neigh   | 925.41     | 932.79     | 944.59     |  16.0 | 28.32
Comm    | 276.32     | 320.67     | 355.53     |  98.7 |  9.73
Output  | 0.15554    | 0.15799    | 0.16364    |   0.4 |  0.00
Modify  | 261.61     | 276.56     | 295.04     |  45.8 |  8.40
Other   |            | 64.98      |            |       |  1.97

Nlocal:    8259.73 ave 8798 max 7405 min
Histogram: 2 4 3 3 5 9 13 13 4 8
Nghost:    27740.3 ave 29222 max 25746 min
Histogram: 1 1 8 3 12 9 8 9 8 5
Neighs:    1.02588e+06 ave 1.26602e+06 max 637294 min
Histogram: 2 4 1 3 4 11 17 9 3 10
FullNghs:  259570 ave 267072 max 244438 min
Histogram: 3 0 6 0 16 4 0 10 1 24

Total # of neighbors = 65656367
Ave neighs/atom = 124.203
Ave special neighs/atom = 0.597011
Neighbor list builds = 2010
Dangerous builds = 0
unfix 2
write_restart SiC-h20.restart
PPPM initialization ...
  extracting TIP4P info from pair style
  using 12-bit tables for long-range coulomb (src/kspace.cpp:332)
  G vector (1/distance) = 0.203408
  grid = 90 90 30
  stencil order = 5
  estimated absolute RMS force accuracy = 0.00149412
  estimated relative force accuracy = 0.000103761
  using double precision FFTW3
  3d grid and FFT values/proc = 10115 4320
WARNING: Using a manybody potential with bonds/angles/dihedrals and special_bond exclusions (src/pair.cpp:226)
Neighbor list info ...
  update every 1 steps, delay 0 steps, check yes
  max neighbors/atom: 2000, page size: 100000
  master list distance cutoff = 14.25
  ghost atom cutoff = 14.25
  binsize = 7.125, bins = 41 41 10
  5 neighbor lists, perpetual/occasional/extra = 5 0 0
  (1) pair tersoff, perpetual, skip from (4)
      attributes: full, newton on
      pair build: skip
      stencil: none
      bin: none
  (2) pair lj/cut/tip4p/long, perpetual, skip from (5)
      attributes: half, newton on
      pair build: skip
      stencil: none
      bin: none
  (3) pair lj/cut, perpetual, skip from (5)
      attributes: half, newton on
      pair build: skip
      stencil: none
      bin: none
  (4) neighbor class addition, perpetual
      attributes: full, newton on
      pair build: full/bin
      stencil: full/bin/3d
      bin: standard
  (5) neighbor class addition, perpetual, half/full from (4)
      attributes: half, newton on
      pair build: halffull/newton
      stencil: none
      bin: none
fix  heatblock1  SiC  temp/berendsen 1500 1500 1                                                       #00000000000000000000#
#velocity water create 330 790316 rot yes dist gaussian
#******************************************
#dump  1  all custom 5000 dump1.v id mol type element x y z vx vy vz                          #$$$$$$$$$$$$$$$$$$$$
#dump_modify 1 element H O si                                                                 #$$$$$$$$$$$$$$$$$$$$
fix 55 O ave/chunk  100 50 5000 33 density/number vx temp file Density_vx_T.dat                             ####$$$$$$$$$$$$$$$$$$$$
label loop
#variable a loop   0.00002   0     ###0.00002
variable d index 0.00002 0.000015 0.00001                                                    #$$$$$$$$$$$$$$$$$$$$
fix	 5  water  addforce  $d  0.0  0.0
fix	 5  water  addforce  0.00002  0.0  0.0
fix 4 all nve
run 100000
PPPM initialization ...
  extracting TIP4P info from pair style
  using 12-bit tables for long-range coulomb (src/kspace.cpp:332)
  G vector (1/distance) = 0.203408
  grid = 90 90 30
  stencil order = 5
  estimated absolute RMS force accuracy = 0.00149412
  estimated relative force accuracy = 0.000103761
  using double precision FFTW3
  3d grid and FFT values/proc = 10115 4320
WARNING: Using a manybody potential with bonds/angles/dihedrals and special_bond exclusions (src/pair.cpp:226)
Neighbor list info ...
  update every 1 steps, delay 0 steps, check yes
  max neighbors/atom: 2000, page size: 100000
  master list distance cutoff = 14.25
  ghost atom cutoff = 14.25
  binsize = 7.125, bins = 41 41 10
  5 neighbor lists, perpetual/occasional/extra = 5 0 0
  (1) pair tersoff, perpetual, skip from (4)
      attributes: full, newton on
      pair build: skip
      stencil: none
      bin: none
  (2) pair lj/cut/tip4p/long, perpetual, skip from (5)
      attributes: half, newton on
      pair build: skip
      stencil: none
      bin: none
  (3) pair lj/cut, perpetual, skip from (5)
      attributes: half, newton on
      pair build: skip
      stencil: none
      bin: none
  (4) neighbor class addition, perpetual
      attributes: full, newton on
      pair build: full/bin
      stencil: full/bin/3d
      bin: standard
  (5) neighbor class addition, perpetual, half/full from (4)
      attributes: half, newton on
      pair build: halffull/newton
      stencil: none
      bin: none
Per MPI rank memory allocation (min/avg/max) = 48.06 | 55.62 | 60.33 Mbytes
Step Temp c_4 c_5 
   20405    80.506545    294.74477    19.730874 
   21000    622.58058    298.51223    714.51516 
   22000     1050.268     305.5374    1261.5388 
   23000    1190.5102    313.56944    1439.2872 
   24000    1257.1193    319.82057    1523.0191 
   25000    1269.0314    327.81692     1536.042 
   26000    1282.5247    334.65811    1551.4224 
   27000    1287.1814    343.43798    1554.9095 
   28000     1290.081     352.0077    1556.2006 
   29000    1294.0594    359.95772    1559.0523 
   30000     1293.581    368.74762    1555.9447 
   31000    1297.4267    380.45079    1557.5613 
   32000    1296.1795    389.26316    1553.4603 
   33000    1301.2621    401.15081    1556.6125 
   34000    1301.8415    414.49416     1553.571 
   35000    1307.5629    428.97288    1556.8081 
   36000    1311.8209    444.39154       1557.9 
   37000    1312.6712    461.94316    1554.0124 
   38000    1318.9865     480.2768    1556.9183 
   39000     1320.936    500.52455    1553.6769 
   40000     1326.325    523.73004    1554.0116 
   41000    1331.9802    549.22875    1554.0376 
   42000    1339.0552    574.23541    1556.0257 
   43000    1346.2909    603.39406    1557.0422 
   44000    1351.0034    635.49356    1553.9855 
   45000    1359.6817    670.63578    1555.1564 
   46000    1365.9378    706.07741    1553.1331 
   47000    1374.1123    748.52698    1551.5843 
   48000    1384.8823    788.18041    1554.1606 
   49000    1392.7736    830.63212    1552.2477 
   50000     1401.139    876.08446    1550.0922 
   51000    1414.2016    920.43203    1554.2798 
   52000    1422.0799    965.22682    1551.6855 
   53000    1432.4504    1012.9622    1551.4562 
   54000    1445.2109     1063.914    1553.3825 
   55000    1453.8953    1103.7707    1553.2238 
   56000    1464.0064    1145.0533    1554.4922 
   57000    1474.1287    1192.6383    1553.9869 
   58000    1482.9847    1230.6221    1554.5798 
   59000    1492.1008    1268.0852    1555.6544 
   60000    1499.6301    1303.7096    1555.2136 
   61000    1506.7403    1330.3774    1556.7756 
   62000    1513.2887    1358.7995    1557.1189 
   63000    1523.3736    1388.6825    1561.5873 
   64000    1524.5441    1405.3139    1558.3719 
   65000     1529.618    1427.9788    1558.4556 
   66000     1532.374    1446.4754    1556.7462 
   67000    1540.0066     1464.853    1561.3306 
   68000    1542.8668    1480.6609    1560.5178 
   69000    1544.0767    1491.8228    1558.9045 
   70000    1550.8431    1511.5036    1562.0073 
   71000    1552.3685    1521.3539     1561.171 
   72000    1554.2034    1528.4528    1561.5126 
   73000    1557.0321    1534.2939    1563.4868 
   74000    1557.7121    1540.2814    1562.6611 
   75000    1558.7523    1548.2217    1561.7439 
   76000    1561.1108    1554.8622    1562.8877 
   77000    1565.5501    1558.3871    1567.5863 
   78000    1566.0243    1563.1257    1566.8508 
   79000    1569.8694    1563.4766    1571.6871 
   80000    1569.0285    1574.3751     1567.516 
   81000    1569.8306    1577.0258    1567.7937 
   82000    1566.7772     1577.036    1563.8711 
   83000    1567.9557    1582.3532    1563.8755 
   84000    1567.7276    1582.2646     1563.608 
   85000    1569.3787    1578.4977     1566.796 
   86000     1568.387    1587.6565    1562.9248 
   87000    1570.2743    1590.9321    1564.4183 
   88000     1568.968    1586.4125    1564.0235 
   89000     1569.509    1585.6892    1564.9232 
   90000    1570.8445    1590.8965    1565.1603 
   91000    1569.9225    1587.2102    1565.0224 
   92000    1570.9368     1591.548    1565.0939 
   93000    1568.8313    1590.9951     1562.548 
   94000     1571.998    1595.8104    1565.2471 
   95000    1573.3922    1594.5873    1567.3837 
   96000    1569.4393    1589.3848    1563.7854 
   97000    1569.2724    1590.1869    1563.3435 
   98000    1572.0603    1594.3715    1565.7352 
   99000    1569.2208    1587.3574    1564.0799 
  100000    1570.9684    1592.6546    1564.8206 
  101000    1569.9891    1587.5025     1565.025 
  102000     1568.002    1589.9727    1561.7735 
  103000    1570.9808    1585.2589    1566.9345 
  104000    1570.4872    1587.0754    1565.7857 
  105000    1569.4527    1588.8557    1563.9526 
  106000    1567.8187    1587.0147    1562.3773 
  107000    1569.0799    1588.0918    1563.6907 
  108000    1569.1925    1593.3103    1562.3549 
  109000    1572.7462    1596.4633    1566.0223 
  110000    1569.8338    1591.5914    1563.6657 
  111000    1571.1542    1590.3696    1565.7073 
  112000    1567.8691    1597.8636    1559.3644 
  113000    1570.7857    1587.6377    1566.0092 
  114000    1570.6824    1588.6825    1565.5804 
  115000    1570.0124    1589.8312    1564.3944 
  116000    1569.1755    1588.2322    1563.7736 
  117000     1570.271    1591.8368    1564.1574 
  118000    1570.2848    1592.1646    1564.0821 
  119000    1569.9227    1593.4205     1563.261 
  120000    1568.5832    1587.4139    1563.2454 
  120405    1568.6221    1590.7229    1562.3567 
Loop time of 27677.9 on 64 procs for 100000 steps with 528623 atoms

Performance: 0.624 ns/day, 38.442 hours/ns, 3.613 timesteps/s
95.8% CPU use with 64 MPI tasks x 1 OpenMP threads

MPI task timing breakdown:
Section |  min time  |  avg time  |  max time  |%varavg| %total
---------------------------------------------------------------
Pair    | 4553.5     | 6228.5     | 7772.9     |1742.4 | 22.50
Bond    | 0.15243    | 0.73549    | 1.81       |  52.6 |  0.00
Kspace  | 2385.3     | 4167       | 6093.1     |2399.9 | 15.06
Neigh   | 12169      | 12290      | 12446      |  68.0 | 44.40
Comm    | 2117.8     | 2460.4     | 2741.5     | 281.1 |  8.89
Output  | 0.74701    | 0.77684    | 0.81092    |   3.0 |  0.00
Modify  | 2008.7     | 2075.5     | 2145.5     |  86.8 |  7.50
Other   |            | 455        |            |       |  1.64

Nlocal:    8259.73 ave 8491 max 7979 min
Histogram: 1 4 6 4 12 9 10 8 7 3
Nghost:    28510.6 ave 29317 max 27874 min
Histogram: 3 2 15 10 14 5 8 3 1 3
Neighs:    948954 ave 1.02709e+06 max 866582 min
Histogram: 1 2 7 5 17 10 10 8 3 1
FullNghs:  256152 ave 263724 max 245621 min
Histogram: 2 5 6 5 6 4 10 13 5 8

Total # of neighbors = 60733088
Ave neighs/atom = 114.889
Ave special neighs/atom = 0.597011
Neighbor list builds = 22941
Dangerous builds = 0
